(set-info :smt-lib-version 2.6)
(set-logic UFNIRA)
(set-info :source |
Generated by: Mirek Olšák, Mikoláš Janota, Chad E. Brown
Generated on: 2024-04-14
Application: Mathematics challenges involving function synthesis
Publications: https://arxiv.org/abs/2404.12048
From a collection by: Vít Musil
Source url: https://prase.cz/library/FunkcionalniRovniceVM/FunkcionalniRovniceVM.pdf
Problem number: Úloha 61
Original source: CSMO-60-A-III-6
|)
(set-info :license "https://creativecommons.org/licenses/by-nc/4.0/")
(set-info :category "crafted")
(set-info :status unsat)

; Header
(declare-fun f (Real) Real)
(assert (forall ((x Real)) (=> (> x 0.0) (> (f x) 0.0))))

; Equations
(assert (forall ((x Real) (y Real)) (=> (and (> x 0.0) (> y 0.0)) (= (* (f x) (f y)) (+ (* (f y) (f (* x (f y)))) (/ 1.0 (* x y)))))))

; Find all possible f

; Solutions

(assert (not (forall ((x Real)) (=> (> x 0.0) (= (f x) (+ 1.0 (/ 1.0 x)))))))

(check-sat)
(exit)
